p cnf 7230 16
5275 5543 5761 0
5273 5537 5759 0
5271 5545 5757 0
-5275 -5762 0
-5273 -5760 0
-5271 -5758 0
5763 5764 0
5547 -5764 0
-5547 -5763 0
-5761 5762 0
-5759 5760 0
-5757 5758 0
-5543 -5762 0
-5537 -5760 0
-5545 -5758 0
3680 -5766 0
